100
100
100
100
99
99
99
98
96
95
95
94
94
94
93
93
92
92
92
91
91
89
86
86
85
85
83
82
81
81
80
78
77
77
75
74
74
73
70
70
69
69
68
68
67
66
65
64
63
63
62
60
59
59
58
56
56
56
55
54
51
50
50
49
48
47
47
46
46
46
44
44
43
42
39
39
38
38
37
37
34
34
32
32
31
30
30
29
29
28
28
27
27
27
25
24
24
24
23
21
20
20
